c Random 3-SAT formula
c Number of variables: 7
c Number of clauses: 30
p cnf 7 30
3 5 7 0
2 -6 5 0
5 4 -2 0
-2 -7 -1 0
-4 1 -3 0
3 -5 -2 0
1 7 6 0
1 4 7 0
-5 -6 -7 0
6 5 2 0
-2 -4 -7 0
1 -5 -3 0
-2 -1 -5 0
1 3 -6 0
-5 6 -2 0
-6 -7 -1 0
-4 -3 5 0
-3 -5 -4 0
3 -2 4 0
-1 -3 2 0
-6 4 -2 0
2 -6 5 0
2 1 7 0
2 -6 -1 0
6 4 2 0
-2 7 -4 0
4 1 -7 0
5 -4 2 0
-3 -7 -5 0
-3 -2 -4 0
